Version identifier: 22.1.1.0 | 2022-11-28 | 9160aff4d
CPXPARAM_ClockType                               1
CPXPARAM_Read_DataCheck                          1
CPXPARAM_Threads                                 1
CPXPARAM_TimeLimit                               7200
CPXPARAM_MIP_Tolerances_AbsMIPGap                0
CPXPARAM_MIP_Tolerances_MIPGap                   0
CPXPARAM_MIP_Tolerances_Integrality              0
Tried aggregator 4 times.
MIP Presolve eliminated 466040 rows and 11778 columns.
MIP Presolve modified 515 coefficients.
Aggregator did 5318 substitutions.
Reduced MIP has 18693 rows, 11254 columns, and 84607 nonzeros.
Reduced MIP has 11254 binaries, 0 generals, 0 SOSs, and 0 indicators.
Presolve time = 1.11 sec. (596.91 ticks)
Probing time = 0.02 sec. (9.79 ticks)
Tried aggregator 1 time.
Detecting symmetries...
MIP Presolve eliminated 13 rows and 0 columns.
MIP Presolve modified 168 coefficients.
Reduced MIP has 18680 rows, 11254 columns, and 84342 nonzeros.
Reduced MIP has 11254 binaries, 0 generals, 0 SOSs, and 0 indicators.
Presolve time = 0.11 sec. (58.89 ticks)
Probing time = 0.01 sec. (9.15 ticks)
Clique table members: 32865.
MIP emphasis: balance optimality and feasibility.
MIP search method: dynamic search.
Parallel mode: none, using 1 thread.
Root relaxation solution time = 54.76 sec. (37336.85 ticks)

        Nodes                                         Cuts/
   Node  Left     Objective  IInf  Best Integer    Best Bound    ItCnt     Gap

      0     0      868.0000  2177                    868.0000    53251         
      0     0      844.0000  2001                   Cuts: 896    90511         
      0     0      844.0000  2617                   Cuts: 424   251798         
      0     0      843.0000  2968                   Cuts: 693   391319         
      0     0      842.0000  3076                   Cuts: 543   540967         
      0     0      842.0000  3356                   Cuts: 504   639306         
Detecting symmetries...
Heuristic still looking.
*     0+    0                            0.0000      842.0000              --- 
Detecting symmetries...
      0     2      842.0000  3174        0.0000      842.0000   739309     --- 
Elapsed time = 1014.76 sec. (729583.35 ticks, tree = 0.01 MB, solutions = 1)
      1     3      842.0000  3156        0.0000      842.0000   868462     --- 
      2     4      842.0000  3194        0.0000      842.0000   962447     --- 
      3     5      842.0000  3367        0.0000      842.0000  1005363     --- 
      4     6      842.0000  3399        0.0000      842.0000  1105235     --- 
      5     7      842.0000  3280        0.0000      842.0000  1162887     --- 
      6     8      842.0000  3511        0.0000      842.0000  1167441     --- 
      7     9      842.0000  3288        0.0000      842.0000  1241595     --- 
      8    10      842.0000  3097        0.0000      842.0000  1287918     --- 
      9    11      842.0000  3149        0.0000      842.0000  1290419     --- 
     10    12      842.0000  3539        0.0000      842.0000  1302659     --- 
Elapsed time = 1691.04 sec. (1228659.49 ticks, tree = 0.36 MB, solutions = 1)
     11    13      842.0000  3357        0.0000      842.0000  1354037     --- 
     12    14      842.0000  3237        0.0000      842.0000  1356573     --- 
     13    15      842.0000  3119        0.0000      842.0000  1402836     --- 
     14    16      842.0000  3078        0.0000      842.0000  1444046     --- 
     15    17      842.0000  3123        0.0000      842.0000  1492658     --- 
     16    18      842.0000  3293        0.0000      842.0000  1499794     --- 
     17    19      842.0000  3074        0.0000      842.0000  1556211     --- 
     18    20      838.0000  2946        0.0000      842.0000  1594016     --- 
     19    21      842.0000  2987        0.0000      842.0000  1634398     --- 
     20    22      842.0000  3001        0.0000      842.0000  1667751     --- 
Elapsed time = 2206.01 sec. (1599108.15 ticks, tree = 0.42 MB, solutions = 1)
     21    23      842.0000  3086        0.0000      842.0000  1669567     --- 
     22    24      842.0000  2930        0.0000      842.0000  1705374     --- 
     23    25      842.0000  2936        0.0000      842.0000  1741248     --- 
     24    26      842.0000  2745        0.0000      842.0000  1781652     --- 
     25    27      842.0000  2636        0.0000      842.0000  1806276     --- 
     26    28      841.6129  2616        0.0000      842.0000  1833237     --- 
     27    29      842.0000  2611        0.0000      842.0000  1857327     --- 
     28    30      842.0000  2382        0.0000      842.0000  1897253     --- 
     29    31      842.0000  2441        0.0000      842.0000  1924003     --- 
     30    32      842.0000  2313        0.0000      842.0000  1946694     --- 
Elapsed time = 2544.21 sec. (1826001.86 ticks, tree = 0.50 MB, solutions = 1)
     31    33      842.0000  2247        0.0000      842.0000  1967348     --- 
     32    34      823.9628  2179        0.0000      842.0000  1991843     --- 
     33    35      842.0000  2168        0.0000      842.0000  2015085     --- 
     34    36      842.0000  2029        0.0000      842.0000  2035454     --- 
     35    37      842.0000  2111        0.0000      842.0000  2055455     --- 
     36    38      814.0000  1990        0.0000      842.0000  2074189     --- 
     37    37    infeasible              0.0000      842.0000  2077157     --- 
     38    38      842.0000  2161        0.0000      842.0000  2093158     --- 
     39    39      842.0000  2130        0.0000      842.0000  2107609     --- 
     40    40      842.0000  2082        0.0000      842.0000  2122627     --- 
Elapsed time = 2716.59 sec. (1940435.42 ticks, tree = 0.55 MB, solutions = 1)
     42    42      842.0000  1913        0.0000      842.0000  2137539     --- 
     43    41    infeasible              0.0000      842.0000  2141958     --- 
     44    40    infeasible              0.0000      842.0000  2144122     --- 
     45    41      842.0000  2789        0.0000      842.0000  2202495     --- 
     47    43      842.0000  2320        0.0000      842.0000  2230492     --- 
     48    44      842.0000  2468        0.0000      842.0000  2253053     --- 
     49    45      838.0000  2402        0.0000      842.0000  2256483     --- 
     50    46      842.0000  2241        0.0000      842.0000  2279239     --- 
     51    47      842.0000  2314        0.0000      842.0000  2298229     --- 
     52    48      842.0000  2174        0.0000      842.0000  2319240     --- 
Elapsed time = 2951.95 sec. (2102976.52 ticks, tree = 0.60 MB, solutions = 1)
     53    49      842.0000  2164        0.0000      842.0000  2354502     --- 
     54    50      842.0000  2103        0.0000      842.0000  2378959     --- 
     55    51      842.0000  2208        0.0000      842.0000  2408897     --- 
     56    52      842.0000  1972        0.0000      842.0000  2427116     --- 
     57    53      842.0000  2199        0.0000      842.0000  2447529     --- 
     58    54      842.0000  1926        0.0000      842.0000  2465784     --- 
     59    55      842.0000  1903        0.0000      842.0000  2484526     --- 
     62    58      842.0000  1825        0.0000      842.0000  2504178     --- 
     63    59      842.0000  1777        0.0000      842.0000  2517854     --- 
     64    60      842.0000  1756        0.0000      842.0000  2536074     --- 
Elapsed time = 3161.98 sec. (2242107.61 ticks, tree = 0.69 MB, solutions = 1)
     66    60    infeasible              0.0000      842.0000  2539302     --- 
     67    61      842.0000  1736        0.0000      842.0000  2551676     --- 
     68    62      842.0000  1760        0.0000      842.0000  2564577     --- 
     69    63      840.0000  1632        0.0000      842.0000  2578586     --- 
     70    64      840.0000  1496        0.0000      842.0000  2579235     --- 
     74    68      840.0000  1305        0.0000      842.0000  2581450     --- 
     75    69      840.0000  1539        0.0000      842.0000  2591890     --- 
     76    70      840.0000  1495        0.0000      842.0000  2601608     --- 
     78    72      838.0000  1216        0.0000      842.0000  2619597     --- 
     80    74      838.0000  1234        0.0000      842.0000  2620269     --- 
Elapsed time = 3244.73 sec. (2289241.17 ticks, tree = 0.77 MB, solutions = 1)
     81    75      838.0000  1168        0.0000      842.0000  2626488     --- 
     85    79      838.0000   925        0.0000      842.0000  2629325     --- 
     87    81      838.0000   950        0.0000      842.0000  2634779     --- 
     88    82      838.0000   908        0.0000      842.0000  2639151     --- 
     89    83      837.5980   803        0.0000      842.0000  2644104     --- 
     90    84      836.8552   958        0.0000      842.0000  2647811     --- 
     91    85      832.2857   923        0.0000      842.0000  2652747     --- 
     96    88      835.8495   808        0.0000      842.0000  2656436     --- 
     98    88    infeasible              0.0000      842.0000  2661308     --- 
    103    93      832.0000   816        0.0000      842.0000  2667499     --- 
Elapsed time = 3274.51 sec. (2306539.82 ticks, tree = 0.91 MB, solutions = 1)
    108    98      832.9568   939        0.0000      842.0000  2671534     --- 
    110   100      832.8604   914        0.0000      842.0000  2674649     --- 
    112   102      821.9219   761        0.0000      842.0000  2684095     --- 
    115   101      842.0000  2972        0.0000      842.0000  2760023     --- 
    116   102      842.0000  3079        0.0000      842.0000  2762658     --- 
    117   103      842.0000  2862        0.0000      842.0000  2797238     --- 
    118   104      842.0000  2902        0.0000      842.0000  2798867     --- 
    119   105      842.0000  3003        0.0000      842.0000  2800351     --- 
    120   106      842.0000  2890        0.0000      842.0000  2837002     --- 
    121   107      842.0000  2758        0.0000      842.0000  2878777     --- 
Elapsed time = 3560.25 sec. (2498573.78 ticks, tree = 1.01 MB, solutions = 1)
    122   108      842.0000  2728        0.0000      842.0000  2912163     --- 
    123   109      842.0000  2516        0.0000      842.0000  2939923     --- 
    124   110      842.0000  2548        0.0000      842.0000  2973522     --- 
    125   111      842.0000  2601        0.0000      842.0000  3011095     --- 
    127   113      842.0000  2617        0.0000      842.0000  3014799     --- 
    129   115      841.9996  2645        0.0000      842.0000  3019959     --- 
    130   116      841.9996  2377        0.0000      842.0000  3052320     --- 
    132   118      841.9996  2363        0.0000      842.0000  3053906     --- 
    133   119      841.9991  2323        0.0000      842.0000  3094638     --- 
    139   125      841.9703  2390        0.0000      842.0000  3147841     --- 
Elapsed time = 3986.53 sec. (2780068.25 ticks, tree = 1.13 MB, solutions = 1)
    140   126      840.0000  2186        0.0000      842.0000  3181509     --- 
    146   132      838.0000  2386        0.0000      842.0000  3187720     --- 
    152   138      838.0000  1997        0.0000      842.0000  3221196     --- 
    156   142      838.0000  1929        0.0000      842.0000  3247159     --- 
    158   144      838.0000  2005        0.0000      842.0000  3270897     --- 
    159   145      838.0000  2012        0.0000      842.0000  3295609     --- 
    160   146      838.0000  1999        0.0000      842.0000  3296008     --- 
    168   154      837.9889  2211        0.0000      842.0000  3302447     --- 
    176   162      836.6667  2330        0.0000      842.0000  3309035     --- 
    183   169      835.8182  1942        0.0000      842.0000  3330147     --- 
Elapsed time = 4192.76 sec. (2919456.38 ticks, tree = 1.42 MB, solutions = 1)
    184   170      831.4272  1943        0.0000      842.0000  3353580     --- 
    186   172      831.4272  1932        0.0000      842.0000  3372011     --- 
    190   176      831.4272  1890        0.0000      842.0000  3390440     --- 
    191   177      831.4272  1839        0.0000      842.0000  3407827     --- 
    194   180      831.4272  1854        0.0000      842.0000  3425661     --- 
    200   186      831.1705  1964        0.0000      842.0000  3430927     --- 
    204   190      831.1705  1763        0.0000      842.0000  3449689     --- 
    213   199      831.1705  1857        0.0000      842.0000  3474092     --- 
    216   202      831.1705  1888        0.0000      842.0000  3492478     --- 
    217   203      831.1705  1886        0.0000      842.0000  3509024     --- 
Elapsed time = 4379.02 sec. (3038431.62 ticks, tree = 1.65 MB, solutions = 1)
    220   206      831.1705  2029        0.0000      842.0000  3511588     --- 
    223   209      831.1174  1964        0.0000      842.0000  3529095     --- 
    224   210      818.9265  1827        0.0000      842.0000  3545449     --- 
    227   209      819.4980  2541        0.0000      842.0000  3594956     --- 
    228   210      817.9980  2409        0.0000      842.0000  3623286     --- 
    233   215      817.9980  2201        0.0000      842.0000  3655594     --- 
    234   216      817.9980  2301        0.0000      842.0000  3685175     --- 
    241   223      817.9980  2443        0.0000      842.0000  3691742     --- 
    246   228      817.9980  2425        0.0000      842.0000  3698020     --- 
    253   235      817.9980  2470        0.0000      842.0000  3705141     --- 
Elapsed time = 4592.33 sec. (3177893.27 ticks, tree = 1.87 MB, solutions = 1)
    261   243      817.9980  2460        0.0000      842.0000  3711734     --- 
    267   249      817.9973  1915        0.0000      842.0000  3742541     --- 
    273   255      817.9973  2087        0.0000      842.0000  3749854     --- 
    279   261      817.9973  1691        0.0000      842.0000  3783485     --- 
    285   267      817.9973  1833        0.0000      842.0000  3792338     --- 
    291   273      817.9973  1915        0.0000      842.0000  3800954     --- 
    298   280      817.9973  1789        0.0000      842.0000  3810015     --- 
    300   282      817.9943  1757        0.0000      842.0000  3857893     --- 
    310   292      817.9861  1770        0.0000      842.0000  3867730     --- 
    316   296    infeasible              0.0000      842.0000  3875527     --- 
Elapsed time = 4745.37 sec. (3278379.61 ticks, tree = 2.30 MB, solutions = 1)
    318   296      842.0000  2996        0.0000      842.0000  3958256     --- 
    319   297      842.0000  3040        0.0000      842.0000  3991830     --- 
    320   298      842.0000  2801        0.0000      842.0000  4032480     --- 
    322   300      842.0000  2801        0.0000      842.0000  4066137     --- 
    326   304      842.0000  2862        0.0000      842.0000  4070629     --- 
    327   305      842.0000  2683        0.0000      842.0000  4103283     --- 
    328   306      842.0000  2759        0.0000      842.0000  4139587     --- 
    329   307      842.0000  2691        0.0000      842.0000  4168318     --- 
    332   310      840.0000  2783        0.0000      842.0000  4173955     --- 
    333   311      840.0000  2683        0.0000      842.0000  4202185     --- 
Elapsed time = 5168.74 sec. (3564250.68 ticks, tree = 2.39 MB, solutions = 1)
    339   317      840.0000  2656        0.0000      842.0000  4208221     --- 
    340   318      840.0000  2741        0.0000      842.0000  4208797     --- 
    348   326      840.0000  2789        0.0000      842.0000  4213335     --- 
    352   330      840.0000  2157        0.0000      842.0000  4239892     --- 
    359   337      839.7781  2404        0.0000      842.0000  4247045     --- 
    366   344      839.3333  2143        0.0000      842.0000  4272041     --- 
    371   349      838.0000  2265        0.0000      842.0000  4275806     --- 
    372   350      838.0000  1988        0.0000      842.0000  4295644     --- 
    379   357      838.0000  1980        0.0000      842.0000  4299290     --- 
    381   359      838.0000  2002        0.0000      842.0000  4323575     --- 
Elapsed time = 5316.40 sec. (3662776.91 ticks, tree = 3.41 MB, solutions = 1)
    386   364      838.0000  1968        0.0000      842.0000  4327409     --- 
    388   366      838.0000  1788        0.0000      842.0000  4344364     --- 
    389   367      838.0000  1753        0.0000      842.0000  4360213     --- 
    400   378      834.0000  1451        0.0000      842.0000  4365943     --- 
    410   388      806.0000  1486        0.0000      842.0000  4385792     --- 
    411   389      806.0000  1426        0.0000      842.0000  4403491     --- 
    419   397      805.9138  1404        0.0000      842.0000  4406270     --- 
    427   405      805.9138  1411        0.0000      842.0000  4418227     --- 
    434   412      805.9138  1504        0.0000      842.0000  4434344     --- 
    440   418      805.9138  1452        0.0000      842.0000  4435382     --- 
Elapsed time = 5475.24 sec. (3744192.37 ticks, tree = 8.57 MB, solutions = 1)
    448   426      805.8978  1375        0.0000      842.0000  4438339     --- 
    449   427      805.6482  1562        0.0000      842.0000  4448577     --- 
    453   431      794.0000  1429        0.0000      842.0000  4460524     --- 
    454   432      794.0000  1393        0.0000      842.0000  4472244     --- 
    471   449      794.0000  1323        0.0000      842.0000  4474663     --- 
    484   462      842.0000  2840        0.0000      842.0000  4513126     --- 
    485   463      839.0000  2547        0.0000      842.0000  4541457     --- 

Performing restart 1

Repeating presolve.
Tried aggregator 3 times.
MIP Presolve eliminated 2016 rows and 1062 columns.
Aggregator did 472 substitutions.
Reduced MIP has 16192 rows, 9720 columns, and 72789 nonzeros.
Reduced MIP has 9720 binaries, 0 generals, 0 SOSs, and 0 indicators.
Presolve time = 0.10 sec. (66.15 ticks)
Tried aggregator 1 time.
Reduced MIP has 16192 rows, 9720 columns, and 72789 nonzeros.
Reduced MIP has 9720 binaries, 0 generals, 0 SOSs, and 0 indicators.
Presolve time = 0.08 sec. (47.61 ticks)
Represolve time = 0.58 sec. (324.15 ticks)
    486     0      842.0000  1967        0.0000     Cuts: 552  4614387     --- 
    486     0      842.0000  1963        0.0000     Cuts: 167  4647108     --- 
    486     0      842.0000  2006        0.0000      Cuts: 31  4683115     --- 
    486     0      842.0000  2108        0.0000      Cuts: 77  4715950     --- 
    486     0      842.0000  2011        0.0000      Cuts: 50  4756778     --- 
    486     0      842.0000  2322        0.0000     Cuts: 429  4786115     --- 
*   486+    0                           72.0000      842.0000              --- 
*   486+    0                           96.0000      842.0000           777.08%
    486     2      842.0000  1760       96.0000      842.0000  4786115  777.08%
    487     3      842.0000  2534       96.0000      842.0000  5011666  777.08%
    488     4      842.0000  2218       96.0000      842.0000  5049558  777.08%
Elapsed time = 6594.45 sec. (4507279.24 ticks, tree = 0.02 MB, solutions = 3)
    489     5      842.0000  2163       96.0000      842.0000  5082747  777.08%
    490     6      842.0000  2204       96.0000      842.0000  5120392  777.08%
    492     8      842.0000  2167       96.0000      842.0000  5161015  777.08%
    494    10      842.0000  2246       96.0000      842.0000  5200942  777.08%
    495    11      842.0000  2329       96.0000      842.0000  5236645  777.08%
    497    13      842.0000  2139       96.0000      842.0000  5269833  777.08%
    498    14      842.0000  2288       96.0000      842.0000  5301612  777.08%
    499    15      842.0000  2250       96.0000      842.0000  5330732  777.08%
    501    17      842.0000  2046       96.0000      842.0000  5369919  777.08%
    503    19      842.0000  1999       96.0000      842.0000  5380762  777.08%
Elapsed time = 6942.71 sec. (4742515.28 ticks, tree = 0.35 MB, solutions = 3)
    504    20      842.0000  2068       96.0000      842.0000  5407853  777.08%
    506    22      842.0000  2038       96.0000      842.0000  5432891  777.08%
    507    23      842.0000  2007       96.0000      842.0000  5454155  777.08%
    508    24      842.0000  1979       96.0000      842.0000  5481130  777.08%
    509    25      842.0000  2071       96.0000      842.0000  5503022  777.08%
    510    26      842.0000  2090       96.0000      842.0000  5524241  777.08%
    511    27      841.9592  2111       96.0000      842.0000  5564268  777.08%
    512    28      842.0000  1970       96.0000      842.0000  5583043  777.08%
    515    31      842.0000  2009       96.0000      842.0000  5609254  777.08%
    517    33      842.0000  1884       96.0000      842.0000  5628364  777.08%
Elapsed time = 7173.94 sec. (4903147.38 ticks, tree = 0.43 MB, solutions = 3)
    518    32    infeasible             96.0000      842.0000  5652004  777.08%

GUB cover cuts applied:  2
Clique cuts applied:  26
Implied bound cuts applied:  1
Zero-half cuts applied:  44

Root node processing (before b&c):
  Real time             = 1014.63 sec. (729497.85 ticks)
Sequential b&c:
  Real time             = 6185.38 sec. (4191538.96 ticks)
                          ------------
Total (root+branch&cut) = 7200.01 sec. (4921036.82 ticks)
Solution is feasible.

---------------------
@@@ MIP_time_limit_feasible
>>> Benchmark mc2024_track1_153.cnf k 5 OPT 96 TimeCost 7534.577960252762 TimeSolve 7226.97816991806 TimeRead 0.181687593460083 TimeTrans 307.41810274124146
